c 0.010074377059936523 (encode time in sec)
p cnf 66 1048
1 2 3 4 0
1 2 -3 4 0
1 -2 3 5 0
1 -2 -3 4 0
-1 2 3 4 0
-1 2 -3 5 0
-1 -2 3 4 0
-1 -2 -3 4 0
6 7 8 9 0
6 7 -8 9 0
6 -7 8 10 0
6 -7 -8 9 0
-6 7 8 9 0
-6 7 -8 10 0
-6 -7 8 9 0
-6 -7 -8 9 0
11 12 13 14 0
11 12 -13 14 0
11 -12 13 15 0
11 -12 -13 14 0
-11 12 13 14 0
-11 12 -13 15 0
-11 -12 13 14 0
-11 -12 -13 14 0
16 17 18 1 2 3 6 7 8 20 0
16 17 18 1 2 3 6 7 -8 20 0
16 17 18 1 2 3 6 -7 8 19 0
16 17 18 1 2 3 6 -7 -8 22 0
16 17 18 1 2 3 -6 7 8 0
16 17 18 1 2 3 -6 7 -8 0
16 17 18 1 2 3 -6 -7 8 0
16 17 18 1 2 3 -6 -7 -8 0
16 17 18 1 2 -3 6 7 8 20 0
16 17 18 1 2 -3 6 7 -8 21 0
16 17 18 1 2 -3 6 -7 8 24 0
16 17 18 1 2 -3 6 -7 -8 34 0
16 17 18 1 2 -3 -6 7 8 0
16 17 18 1 2 -3 -6 7 -8 0
16 17 18 1 2 -3 -6 -7 8 0
16 17 18 1 2 -3 -6 -7 -8 0
16 17 18 1 -2 3 6 7 8 20 0
16 17 18 1 -2 3 6 7 -8 0
16 17 18 1 -2 3 6 -7 8 25 0
16 17 18 1 -2 3 6 -7 -8 0
16 17 18 1 -2 3 -6 7 8 0
16 17 18 1 -2 3 -6 7 -8 0
16 17 18 1 -2 3 -6 -7 8 0
16 17 18 1 -2 3 -6 -7 -8 0
16 17 18 1 -2 -3 6 7 8 26 0
16 17 18 1 -2 -3 6 7 -8 21 0
16 17 18 1 -2 -3 6 -7 8 0
16 17 18 1 -2 -3 6 -7 -8 0
16 17 18 1 -2 -3 -6 7 8 0
16 17 18 1 -2 -3 -6 7 -8 0
16 17 18 1 -2 -3 -6 -7 8 0
16 17 18 1 -2 -3 -6 -7 -8 0
16 17 18 -1 2 3 6 7 8 21 0
16 17 18 -1 2 3 6 7 -8 0
16 17 18 -1 2 3 6 -7 8 0
16 17 18 -1 2 3 6 -7 -8 0
16 17 18 -1 2 3 -6 7 8 0
16 17 18 -1 2 3 -6 7 -8 0
16 17 18 -1 2 3 -6 -7 8 0
16 17 18 -1 2 3 -6 -7 -8 0
16 17 18 -1 2 -3 6 7 8 22 0
16 17 18 -1 2 -3 6 7 -8 0
16 17 18 -1 2 -3 6 -7 8 0
16 17 18 -1 2 -3 6 -7 -8 0
16 17 18 -1 2 -3 -6 7 8 0
16 17 18 -1 2 -3 -6 7 -8 0
16 17 18 -1 2 -3 -6 -7 8 0
16 17 18 -1 2 -3 -6 -7 -8 0
16 17 18 -1 -2 3 6 7 8 0
16 17 18 -1 -2 3 6 7 -8 0
16 17 18 -1 -2 3 6 -7 8 0
16 17 18 -1 -2 3 6 -7 -8 0
16 17 18 -1 -2 3 -6 7 8 0
16 17 18 -1 -2 3 -6 7 -8 0
16 17 18 -1 -2 3 -6 -7 8 0
16 17 18 -1 -2 3 -6 -7 -8 0
16 17 18 -1 -2 -3 6 7 8 27 0
16 17 18 -1 -2 -3 6 7 -8 0
16 17 18 -1 -2 -3 6 -7 8 0
16 17 18 -1 -2 -3 6 -7 -8 0
16 17 18 -1 -2 -3 -6 7 8 0
16 17 18 -1 -2 -3 -6 7 -8 0
16 17 18 -1 -2 -3 -6 -7 8 0
16 17 18 -1 -2 -3 -6 -7 -8 0
16 17 -18 1 2 3 6 7 8 0
16 17 -18 1 2 3 6 7 -8 0
16 17 -18 1 2 3 6 -7 8 27 0
16 17 -18 1 2 3 6 -7 -8 26 0
16 17 -18 1 2 3 -6 7 8 20 0
16 17 -18 1 2 3 -6 7 -8 21 0
16 17 -18 1 2 3 -6 -7 8 0
16 17 -18 1 2 3 -6 -7 -8 0
16 17 -18 1 2 -3 6 7 8 0
16 17 -18 1 2 -3 6 7 -8 25 0
16 17 -18 1 2 -3 6 -7 8 39 0
16 17 -18 1 2 -3 6 -7 -8 21 0
16 17 -18 1 2 -3 -6 7 8 0
16 17 -18 1 2 -3 -6 7 -8 0
16 17 -18 1 2 -3 -6 -7 8 0
16 17 -18 1 2 -3 -6 -7 -8 0
16 17 -18 1 -2 3 6 7 8 0
16 17 -18 1 -2 3 6 7 -8 26 0
16 17 -18 1 -2 3 6 -7 8 0
16 17 -18 1 -2 3 6 -7 -8 0
16 17 -18 1 -2 3 -6 7 8 0
16 17 -18 1 -2 3 -6 7 -8 0
16 17 -18 1 -2 3 -6 -7 8 0
16 17 -18 1 -2 3 -6 -7 -8 0
16 17 -18 1 -2 -3 6 7 8 22 0
16 17 -18 1 -2 -3 6 7 -8 25 0
16 17 -18 1 -2 -3 6 -7 8 25 0
16 17 -18 1 -2 -3 6 -7 -8 0
16 17 -18 1 -2 -3 -6 7 8 0
16 17 -18 1 -2 -3 -6 7 -8 0
16 17 -18 1 -2 -3 -6 -7 8 0
16 17 -18 1 -2 -3 -6 -7 -8 0
16 17 -18 -1 2 3 6 7 8 28 0
16 17 -18 -1 2 3 6 7 -8 22 0
16 17 -18 -1 2 3 6 -7 8 0
16 17 -18 -1 2 3 6 -7 -8 0
16 17 -18 -1 2 3 -6 7 8 0
16 17 -18 -1 2 3 -6 7 -8 0
16 17 -18 -1 2 3 -6 -7 8 0
16 17 -18 -1 2 3 -6 -7 -8 0
16 17 -18 -1 2 -3 6 7 8 29 0
16 17 -18 -1 2 -3 6 7 -8 0
16 17 -18 -1 2 -3 6 -7 8 0
16 17 -18 -1 2 -3 6 -7 -8 0
16 17 -18 -1 2 -3 -6 7 8 0
16 17 -18 -1 2 -3 -6 7 -8 0
16 17 -18 -1 2 -3 -6 -7 8 0
16 17 -18 -1 2 -3 -6 -7 -8 0
16 17 -18 -1 -2 3 6 7 8 0
16 17 -18 -1 -2 3 6 7 -8 0
16 17 -18 -1 -2 3 6 -7 8 0
16 17 -18 -1 -2 3 6 -7 -8 0
16 17 -18 -1 -2 3 -6 7 8 0
16 17 -18 -1 -2 3 -6 7 -8 0
16 17 -18 -1 -2 3 -6 -7 8 0
16 17 -18 -1 -2 3 -6 -7 -8 0
16 17 -18 -1 -2 -3 6 7 8 27 0
16 17 -18 -1 -2 -3 6 7 -8 0
16 17 -18 -1 -2 -3 6 -7 8 0
16 17 -18 -1 -2 -3 6 -7 -8 0
16 17 -18 -1 -2 -3 -6 7 8 0
16 17 -18 -1 -2 -3 -6 7 -8 0
16 17 -18 -1 -2 -3 -6 -7 8 0
16 17 -18 -1 -2 -3 -6 -7 -8 0
16 -17 18 1 2 3 6 7 8 0
16 -17 18 1 2 3 6 7 -8 0
16 -17 18 1 2 3 6 -7 8 27 0
16 -17 18 1 2 3 6 -7 -8 0
16 -17 18 1 2 3 -6 7 8 0
16 -17 18 1 2 3 -6 7 -8 25 0
16 -17 18 1 2 3 -6 -7 8 0
16 -17 18 1 2 3 -6 -7 -8 0
16 -17 18 1 2 -3 6 7 8 0
16 -17 18 1 2 -3 6 7 -8 34 0
16 -17 18 1 2 -3 6 -7 8 21 0
16 -17 18 1 2 -3 6 -7 -8 21 0
16 -17 18 1 2 -3 -6 7 8 25 0
16 -17 18 1 2 -3 -6 7 -8 21 0
16 -17 18 1 2 -3 -6 -7 8 0
16 -17 18 1 2 -3 -6 -7 -8 0
16 -17 18 1 -2 3 6 7 8 0
16 -17 18 1 -2 3 6 7 -8 22 0
16 -17 18 1 -2 3 6 -7 8 25 0
16 -17 18 1 -2 3 6 -7 -8 25 0
16 -17 18 1 -2 3 -6 7 8 21 0
16 -17 18 1 -2 3 -6 7 -8 0
16 -17 18 1 -2 3 -6 -7 8 0
16 -17 18 1 -2 3 -6 -7 -8 0
16 -17 18 1 -2 -3 6 7 8 0
16 -17 18 1 -2 -3 6 7 -8 34 0
16 -17 18 1 -2 -3 6 -7 8 25 0
16 -17 18 1 -2 -3 6 -7 -8 19 0
16 -17 18 1 -2 -3 -6 7 8 27 0
16 -17 18 1 -2 -3 -6 7 -8 0
16 -17 18 1 -2 -3 -6 -7 8 0
16 -17 18 1 -2 -3 -6 -7 -8 0
16 -17 18 -1 2 3 6 7 8 0
16 -17 18 -1 2 3 6 7 -8 26 0
16 -17 18 -1 2 3 6 -7 8 21 0
16 -17 18 -1 2 3 6 -7 -8 0
16 -17 18 -1 2 3 -6 7 8 0
16 -17 18 -1 2 3 -6 7 -8 0
16 -17 18 -1 2 3 -6 -7 8 0
16 -17 18 -1 2 3 -6 -7 -8 0
16 -17 18 -1 2 -3 6 7 8 22 0
16 -17 18 -1 2 -3 6 7 -8 20 0
16 -17 18 -1 2 -3 6 -7 8 0
16 -17 18 -1 2 -3 6 -7 -8 22 0
16 -17 18 -1 2 -3 -6 7 8 0
16 -17 18 -1 2 -3 -6 7 -8 0
16 -17 18 -1 2 -3 -6 -7 8 0
16 -17 18 -1 2 -3 -6 -7 -8 0
16 -17 18 -1 -2 3 6 7 8 25 0
16 -17 18 -1 -2 3 6 7 -8 33 0
16 -17 18 -1 -2 3 6 -7 8 0
16 -17 18 -1 -2 3 6 -7 -8 0
16 -17 18 -1 -2 3 -6 7 8 0
16 -17 18 -1 -2 3 -6 7 -8 0
16 -17 18 -1 -2 3 -6 -7 8 0
16 -17 18 -1 -2 3 -6 -7 -8 0
16 -17 18 -1 -2 -3 6 7 8 0
16 -17 18 -1 -2 -3 6 7 -8 0
16 -17 18 -1 -2 -3 6 -7 8 0
16 -17 18 -1 -2 -3 6 -7 -8 0
16 -17 18 -1 -2 -3 -6 7 8 0
16 -17 18 -1 -2 -3 -6 7 -8 0
16 -17 18 -1 -2 -3 -6 -7 8 0
16 -17 18 -1 -2 -3 -6 -7 -8 0
16 -17 -18 1 2 3 6 7 8 0
16 -17 -18 1 2 3 6 7 -8 0
16 -17 -18 1 2 3 6 -7 8 0
16 -17 -18 1 2 3 6 -7 -8 0
16 -17 -18 1 2 3 -6 7 8 0
16 -17 -18 1 2 3 -6 7 -8 34 0
16 -17 -18 1 2 3 -6 -7 8 20 0
16 -17 -18 1 2 3 -6 -7 -8 34 0
16 -17 -18 1 2 -3 6 7 8 0
16 -17 -18 1 2 -3 6 7 -8 0
16 -17 -18 1 2 -3 6 -7 8 0
16 -17 -18 1 2 -3 6 -7 -8 0
16 -17 -18 1 2 -3 -6 7 8 25 0
16 -17 -18 1 2 -3 -6 7 -8 0
16 -17 -18 1 2 -3 -6 -7 8 21 0
16 -17 -18 1 2 -3 -6 -7 -8 0
16 -17 -18 1 -2 3 6 7 8 0
16 -17 -18 1 -2 3 6 7 -8 0
16 -17 -18 1 -2 3 6 -7 8 0
16 -17 -18 1 -2 3 6 -7 -8 25 0
16 -17 -18 1 -2 3 -6 7 8 21 0
16 -17 -18 1 -2 3 -6 7 -8 27 0
16 -17 -18 1 -2 3 -6 -7 8 22 0
16 -17 -18 1 -2 3 -6 -7 -8 0
16 -17 -18 1 -2 -3 6 7 8 0
16 -17 -18 1 -2 -3 6 7 -8 0
16 -17 -18 1 -2 -3 6 -7 8 0
16 -17 -18 1 -2 -3 6 -7 -8 27 0
16 -17 -18 1 -2 -3 -6 7 8 19 0
16 -17 -18 1 -2 -3 -6 7 -8 21 0
16 -17 -18 1 -2 -3 -6 -7 8 0
16 -17 -18 1 -2 -3 -6 -7 -8 0
16 -17 -18 -1 2 3 6 7 8 0
16 -17 -18 -1 2 3 6 7 -8 0
16 -17 -18 -1 2 3 6 -7 8 21 0
16 -17 -18 -1 2 3 6 -7 -8 36 0
16 -17 -18 -1 2 3 -6 7 8 0
16 -17 -18 -1 2 3 -6 7 -8 0
16 -17 -18 -1 2 3 -6 -7 8 0
16 -17 -18 -1 2 3 -6 -7 -8 0
16 -17 -18 -1 2 -3 6 7 8 30 0
16 -17 -18 -1 2 -3 6 7 -8 0
16 -17 -18 -1 2 -3 6 -7 8 31 0
16 -17 -18 -1 2 -3 6 -7 -8 22 0
16 -17 -18 -1 2 -3 -6 7 8 0
16 -17 -18 -1 2 -3 -6 7 -8 0
16 -17 -18 -1 2 -3 -6 -7 8 0
16 -17 -18 -1 2 -3 -6 -7 -8 0
16 -17 -18 -1 -2 3 6 7 8 25 0
16 -17 -18 -1 -2 3 6 7 -8 31 0
16 -17 -18 -1 -2 3 6 -7 8 0
16 -17 -18 -1 -2 3 6 -7 -8 0
16 -17 -18 -1 -2 3 -6 7 8 0
16 -17 -18 -1 -2 3 -6 7 -8 0
16 -17 -18 -1 -2 3 -6 -7 8 0
16 -17 -18 -1 -2 3 -6 -7 -8 0
16 -17 -18 -1 -2 -3 6 7 8 0
16 -17 -18 -1 -2 -3 6 7 -8 25 0
16 -17 -18 -1 -2 -3 6 -7 8 0
16 -17 -18 -1 -2 -3 6 -7 -8 0
16 -17 -18 -1 -2 -3 -6 7 8 0
16 -17 -18 -1 -2 -3 -6 7 -8 0
16 -17 -18 -1 -2 -3 -6 -7 8 0
16 -17 -18 -1 -2 -3 -6 -7 -8 0
-16 17 18 1 2 3 6 7 8 0
-16 17 18 1 2 3 6 7 -8 0
-16 17 18 1 2 3 6 -7 8 0
-16 17 18 1 2 3 6 -7 -8 0
-16 17 18 1 2 3 -6 7 8 0
-16 17 18 1 2 3 -6 7 -8 0
-16 17 18 1 2 3 -6 -7 8 0
-16 17 18 1 2 3 -6 -7 -8 0
-16 17 18 1 2 -3 6 7 8 0
-16 17 18 1 2 -3 6 7 -8 0
-16 17 18 1 2 -3 6 -7 8 0
-16 17 18 1 2 -3 6 -7 -8 34 0
-16 17 18 1 2 -3 -6 7 8 0
-16 17 18 1 2 -3 -6 7 -8 28 0
-16 17 18 1 2 -3 -6 -7 8 21 0
-16 17 18 1 2 -3 -6 -7 -8 0
-16 17 18 1 -2 3 6 7 8 0
-16 17 18 1 -2 3 6 7 -8 0
-16 17 18 1 -2 3 6 -7 8 0
-16 17 18 1 -2 3 6 -7 -8 0
-16 17 18 1 -2 3 -6 7 8 21 0
-16 17 18 1 -2 3 -6 7 -8 19 0
-16 17 18 1 -2 3 -6 -7 8 0
-16 17 18 1 -2 3 -6 -7 -8 0
-16 17 18 1 -2 -3 6 7 8 0
-16 17 18 1 -2 -3 6 7 -8 0
-16 17 18 1 -2 -3 6 -7 8 0
-16 17 18 1 -2 -3 6 -7 -8 27 0
-16 17 18 1 -2 -3 -6 7 8 0
-16 17 18 1 -2 -3 -6 7 -8 21 0
-16 17 18 1 -2 -3 -6 -7 8 27 0
-16 17 18 1 -2 -3 -6 -7 -8 0
-16 17 18 -1 2 3 6 7 8 0
-16 17 18 -1 2 3 6 7 -8 0
-16 17 18 -1 2 3 6 -7 8 21 0
-16 17 18 -1 2 3 6 -7 -8 34 0
-16 17 18 -1 2 3 -6 7 8 26 0
-16 17 18 -1 2 3 -6 7 -8 21 0
-16 17 18 -1 2 3 -6 -7 8 35 0
-16 17 18 -1 2 3 -6 -7 -8 0
-16 17 18 -1 2 -3 6 7 8 0
-16 17 18 -1 2 -3 6 7 -8 0
-16 17 18 -1 2 -3 6 -7 8 38 0
-16 17 18 -1 2 -3 6 -7 -8 25 0
-16 17 18 -1 2 -3 -6 7 8 0
-16 17 18 -1 2 -3 -6 7 -8 0
-16 17 18 -1 2 -3 -6 -7 8 0
-16 17 18 -1 2 -3 -6 -7 -8 0
-16 17 18 -1 -2 3 6 7 8 0
-16 17 18 -1 -2 3 6 7 -8 35 0
-16 17 18 -1 -2 3 6 -7 8 21 0
-16 17 18 -1 -2 3 6 -7 -8 21 0
-16 17 18 -1 -2 3 -6 7 8 0
-16 17 18 -1 -2 3 -6 7 -8 0
-16 17 18 -1 -2 3 -6 -7 8 0
-16 17 18 -1 -2 3 -6 -7 -8 0
-16 17 18 -1 -2 -3 6 7 8 37 0
-16 17 18 -1 -2 -3 6 7 -8 25 0
-16 17 18 -1 -2 -3 6 -7 8 28 0
-16 17 18 -1 -2 -3 6 -7 -8 27 0
-16 17 18 -1 -2 -3 -6 7 8 0
-16 17 18 -1 -2 -3 -6 7 -8 0
-16 17 18 -1 -2 -3 -6 -7 8 0
-16 17 18 -1 -2 -3 -6 -7 -8 0
-16 17 -18 1 2 3 6 7 8 0
-16 17 -18 1 2 3 6 7 -8 0
-16 17 -18 1 2 3 6 -7 8 0
-16 17 -18 1 2 3 6 -7 -8 0
-16 17 -18 1 2 3 -6 7 8 0
-16 17 -18 1 2 3 -6 7 -8 0
-16 17 -18 1 2 3 -6 -7 8 0
-16 17 -18 1 2 3 -6 -7 -8 25 0
-16 17 -18 1 2 -3 6 7 8 0
-16 17 -18 1 2 -3 6 7 -8 0
-16 17 -18 1 2 -3 6 -7 8 0
-16 17 -18 1 2 -3 6 -7 -8 0
-16 17 -18 1 2 -3 -6 7 8 0
-16 17 -18 1 2 -3 -6 7 -8 0
-16 17 -18 1 2 -3 -6 -7 8 21 0
-16 17 -18 1 2 -3 -6 -7 -8 21 0
-16 17 -18 1 -2 3 6 7 8 0
-16 17 -18 1 -2 3 6 7 -8 0
-16 17 -18 1 -2 3 6 -7 8 0
-16 17 -18 1 -2 3 6 -7 -8 0
-16 17 -18 1 -2 3 -6 7 8 0
-16 17 -18 1 -2 3 -6 7 -8 27 0
-16 17 -18 1 -2 3 -6 -7 8 22 0
-16 17 -18 1 -2 3 -6 -7 -8 34 0
-16 17 -18 1 -2 -3 6 7 8 0
-16 17 -18 1 -2 -3 6 7 -8 0
-16 17 -18 1 -2 -3 6 -7 8 0
-16 17 -18 1 -2 -3 6 -7 -8 0
-16 17 -18 1 -2 -3 -6 7 8 27 0
-16 17 -18 1 -2 -3 -6 7 -8 21 0
-16 17 -18 1 -2 -3 -6 -7 8 19 0
-16 17 -18 1 -2 -3 -6 -7 -8 0
-16 17 -18 -1 2 3 6 7 8 0
-16 17 -18 -1 2 3 6 7 -8 0
-16 17 -18 -1 2 3 6 -7 8 0
-16 17 -18 -1 2 3 6 -7 -8 0
-16 17 -18 -1 2 3 -6 7 8 22 0
-16 17 -18 -1 2 3 -6 7 -8 28 0
-16 17 -18 -1 2 3 -6 -7 8 33 0
-16 17 -18 -1 2 3 -6 -7 -8 0
-16 17 -18 -1 2 -3 6 7 8 0
-16 17 -18 -1 2 -3 6 7 -8 0
-16 17 -18 -1 2 -3 6 -7 8 0
-16 17 -18 -1 2 -3 6 -7 -8 0
-16 17 -18 -1 2 -3 -6 7 8 25 0
-16 17 -18 -1 2 -3 -6 7 -8 20 0
-16 17 -18 -1 2 -3 -6 -7 8 37 0
-16 17 -18 -1 2 -3 -6 -7 -8 0
-16 17 -18 -1 -2 3 6 7 8 0
-16 17 -18 -1 -2 3 6 7 -8 0
-16 17 -18 -1 -2 3 6 -7 8 28 0
-16 17 -18 -1 -2 3 6 -7 -8 28 0
-16 17 -18 -1 -2 3 -6 7 8 19 0
-16 17 -18 -1 -2 3 -6 7 -8 0
-16 17 -18 -1 -2 3 -6 -7 8 0
-16 17 -18 -1 -2 3 -6 -7 -8 0
-16 17 -18 -1 -2 -3 6 7 8 27 0
-16 17 -18 -1 -2 -3 6 7 -8 0
-16 17 -18 -1 -2 -3 6 -7 8 21 0
-16 17 -18 -1 -2 -3 6 -7 -8 27 0
-16 17 -18 -1 -2 -3 -6 7 8 34 0
-16 17 -18 -1 -2 -3 -6 7 -8 32 0
-16 17 -18 -1 -2 -3 -6 -7 8 0
-16 17 -18 -1 -2 -3 -6 -7 -8 0
-16 -17 18 1 2 3 6 7 8 0
-16 -17 18 1 2 3 6 7 -8 0
-16 -17 18 1 2 3 6 -7 8 0
-16 -17 18 1 2 3 6 -7 -8 0
-16 -17 18 1 2 3 -6 7 8 0
-16 -17 18 1 2 3 -6 7 -8 0
-16 -17 18 1 2 3 -6 -7 8 0
-16 -17 18 1 2 3 -6 -7 -8 34 0
-16 -17 18 1 2 -3 6 7 8 0
-16 -17 18 1 2 -3 6 7 -8 0
-16 -17 18 1 2 -3 6 -7 8 0
-16 -17 18 1 2 -3 6 -7 -8 0
-16 -17 18 1 2 -3 -6 7 8 0
-16 -17 18 1 2 -3 -6 7 -8 0
-16 -17 18 1 2 -3 -6 -7 8 0
-16 -17 18 1 2 -3 -6 -7 -8 28 0
-16 -17 18 1 -2 3 6 7 8 0
-16 -17 18 1 -2 3 6 7 -8 0
-16 -17 18 1 -2 3 6 -7 8 0
-16 -17 18 1 -2 3 6 -7 -8 0
-16 -17 18 1 -2 3 -6 7 8 0
-16 -17 18 1 -2 3 -6 7 -8 0
-16 -17 18 1 -2 3 -6 -7 8 25 0
-16 -17 18 1 -2 3 -6 -7 -8 28 0
-16 -17 18 1 -2 -3 6 7 8 0
-16 -17 18 1 -2 -3 6 7 -8 0
-16 -17 18 1 -2 -3 6 -7 8 0
-16 -17 18 1 -2 -3 6 -7 -8 0
-16 -17 18 1 -2 -3 -6 7 8 0
-16 -17 18 1 -2 -3 -6 7 -8 0
-16 -17 18 1 -2 -3 -6 -7 8 27 0
-16 -17 18 1 -2 -3 -6 -7 -8 37 0
-16 -17 18 -1 2 3 6 7 8 0
-16 -17 18 -1 2 3 6 7 -8 0
-16 -17 18 -1 2 3 6 -7 8 0
-16 -17 18 -1 2 3 6 -7 -8 0
-16 -17 18 -1 2 3 -6 7 8 0
-16 -17 18 -1 2 3 -6 7 -8 0
-16 -17 18 -1 2 3 -6 -7 8 38 0
-16 -17 18 -1 2 3 -6 -7 -8 25 0
-16 -17 18 -1 2 -3 6 7 8 0
-16 -17 18 -1 2 -3 6 7 -8 0
-16 -17 18 -1 2 -3 6 -7 8 0
-16 -17 18 -1 2 -3 6 -7 -8 0
-16 -17 18 -1 2 -3 -6 7 8 25 0
-16 -17 18 -1 2 -3 -6 7 -8 0
-16 -17 18 -1 2 -3 -6 -7 8 37 0
-16 -17 18 -1 2 -3 -6 -7 -8 0
-16 -17 18 -1 -2 3 6 7 8 0
-16 -17 18 -1 -2 3 6 7 -8 0
-16 -17 18 -1 -2 3 6 -7 8 0
-16 -17 18 -1 -2 3 6 -7 -8 0
-16 -17 18 -1 -2 3 -6 7 8 37 0
-16 -17 18 -1 -2 3 -6 7 -8 20 0
-16 -17 18 -1 -2 3 -6 -7 8 22 0
-16 -17 18 -1 -2 3 -6 -7 -8 0
-16 -17 18 -1 -2 -3 6 7 8 0
-16 -17 18 -1 -2 -3 6 7 -8 0
-16 -17 18 -1 -2 -3 6 -7 8 0
-16 -17 18 -1 -2 -3 6 -7 -8 19 0
-16 -17 18 -1 -2 -3 -6 7 8 28 0
-16 -17 18 -1 -2 -3 -6 7 -8 24 0
-16 -17 18 -1 -2 -3 -6 -7 8 0
-16 -17 18 -1 -2 -3 -6 -7 -8 0
-16 -17 -18 1 2 3 6 7 8 0
-16 -17 -18 1 2 3 6 7 -8 0
-16 -17 -18 1 2 3 6 -7 8 0
-16 -17 -18 1 2 3 6 -7 -8 0
-16 -17 -18 1 2 3 -6 7 8 0
-16 -17 -18 1 2 3 -6 7 -8 0
-16 -17 -18 1 2 3 -6 -7 8 0
-16 -17 -18 1 2 3 -6 -7 -8 34 0
-16 -17 -18 1 2 -3 6 7 8 0
-16 -17 -18 1 2 -3 6 7 -8 0
-16 -17 -18 1 2 -3 6 -7 8 0
-16 -17 -18 1 2 -3 6 -7 -8 0
-16 -17 -18 1 2 -3 -6 7 8 0
-16 -17 -18 1 2 -3 -6 7 -8 0
-16 -17 -18 1 2 -3 -6 -7 8 0
-16 -17 -18 1 2 -3 -6 -7 -8 0
-16 -17 -18 1 -2 3 6 7 8 0
-16 -17 -18 1 -2 3 6 7 -8 0
-16 -17 -18 1 -2 3 6 -7 8 0
-16 -17 -18 1 -2 3 6 -7 -8 0
-16 -17 -18 1 -2 3 -6 7 8 0
-16 -17 -18 1 -2 3 -6 7 -8 0
-16 -17 -18 1 -2 3 -6 -7 8 0
-16 -17 -18 1 -2 3 -6 -7 -8 34 0
-16 -17 -18 1 -2 -3 6 7 8 0
-16 -17 -18 1 -2 -3 6 7 -8 0
-16 -17 -18 1 -2 -3 6 -7 8 0
-16 -17 -18 1 -2 -3 6 -7 -8 0
-16 -17 -18 1 -2 -3 -6 7 8 0
-16 -17 -18 1 -2 -3 -6 7 -8 0
-16 -17 -18 1 -2 -3 -6 -7 8 0
-16 -17 -18 1 -2 -3 -6 -7 -8 19 0
-16 -17 -18 -1 2 3 6 7 8 0
-16 -17 -18 -1 2 3 6 7 -8 0
-16 -17 -18 -1 2 3 6 -7 8 0
-16 -17 -18 -1 2 3 6 -7 -8 0
-16 -17 -18 -1 2 3 -6 7 8 0
-16 -17 -18 -1 2 3 -6 7 -8 0
-16 -17 -18 -1 2 3 -6 -7 8 33 0
-16 -17 -18 -1 2 3 -6 -7 -8 25 0
-16 -17 -18 -1 2 -3 6 7 8 0
-16 -17 -18 -1 2 -3 6 7 -8 0
-16 -17 -18 -1 2 -3 6 -7 8 0
-16 -17 -18 -1 2 -3 6 -7 -8 0
-16 -17 -18 -1 2 -3 -6 7 8 0
-16 -17 -18 -1 2 -3 -6 7 -8 0
-16 -17 -18 -1 2 -3 -6 -7 8 27 0
-16 -17 -18 -1 2 -3 -6 -7 -8 20 0
-16 -17 -18 -1 -2 3 6 7 8 0
-16 -17 -18 -1 -2 3 6 7 -8 0
-16 -17 -18 -1 -2 3 6 -7 8 0
-16 -17 -18 -1 -2 3 6 -7 -8 0
-16 -17 -18 -1 -2 3 -6 7 8 0
-16 -17 -18 -1 -2 3 -6 7 -8 0
-16 -17 -18 -1 -2 3 -6 -7 8 26 0
-16 -17 -18 -1 -2 3 -6 -7 -8 20 0
-16 -17 -18 -1 -2 -3 6 7 8 0
-16 -17 -18 -1 -2 -3 6 7 -8 0
-16 -17 -18 -1 -2 -3 6 -7 8 0
-16 -17 -18 -1 -2 -3 6 -7 -8 0
-16 -17 -18 -1 -2 -3 -6 7 8 34 0
-16 -17 -18 -1 -2 -3 -6 7 -8 28 0
-16 -17 -18 -1 -2 -3 -6 -7 8 20 0
-16 -17 -18 -1 -2 -3 -6 -7 -8 20 0
40 41 42 11 12 13 16 17 18 44 0
40 41 42 11 12 13 16 17 -18 43 0
40 41 42 11 12 13 16 -17 18 46 0
40 41 42 11 12 13 16 -17 -18 0
40 41 42 11 12 13 -16 17 18 0
40 41 42 11 12 13 -16 17 -18 0
40 41 42 11 12 13 -16 -17 18 0
40 41 42 11 12 13 -16 -17 -18 0
40 41 42 11 12 -13 16 17 18 44 0
40 41 42 11 12 -13 16 17 -18 45 0
40 41 42 11 12 -13 16 -17 18 0
40 41 42 11 12 -13 16 -17 -18 0
40 41 42 11 12 -13 -16 17 18 0
40 41 42 11 12 -13 -16 17 -18 0
40 41 42 11 12 -13 -16 -17 18 0
40 41 42 11 12 -13 -16 -17 -18 0
40 41 42 11 -12 13 16 17 18 48 0
40 41 42 11 -12 13 16 17 -18 49 0
40 41 42 11 -12 13 16 -17 18 0
40 41 42 11 -12 13 16 -17 -18 0
40 41 42 11 -12 13 -16 17 18 0
40 41 42 11 -12 13 -16 17 -18 0
40 41 42 11 -12 13 -16 -17 18 0
40 41 42 11 -12 13 -16 -17 -18 0
40 41 42 11 -12 -13 16 17 18 50 0
40 41 42 11 -12 -13 16 17 -18 0
40 41 42 11 -12 -13 16 -17 18 0
40 41 42 11 -12 -13 16 -17 -18 0
40 41 42 11 -12 -13 -16 17 18 0
40 41 42 11 -12 -13 -16 17 -18 0
40 41 42 11 -12 -13 -16 -17 18 0
40 41 42 11 -12 -13 -16 -17 -18 0
40 41 42 -11 12 13 16 17 18 44 0
40 41 42 -11 12 13 16 17 -18 0
40 41 42 -11 12 13 16 -17 18 0
40 41 42 -11 12 13 16 -17 -18 0
40 41 42 -11 12 13 -16 17 18 0
40 41 42 -11 12 13 -16 17 -18 0
40 41 42 -11 12 13 -16 -17 18 0
40 41 42 -11 12 13 -16 -17 -18 0
40 41 42 -11 12 -13 16 17 18 51 0
40 41 42 -11 12 -13 16 17 -18 0
40 41 42 -11 12 -13 16 -17 18 0
40 41 42 -11 12 -13 16 -17 -18 0
40 41 42 -11 12 -13 -16 17 18 0
40 41 42 -11 12 -13 -16 17 -18 0
40 41 42 -11 12 -13 -16 -17 18 0
40 41 42 -11 12 -13 -16 -17 -18 0
40 41 42 -11 -12 13 16 17 18 52 0
40 41 42 -11 -12 13 16 17 -18 0
40 41 42 -11 -12 13 16 -17 18 0
40 41 42 -11 -12 13 16 -17 -18 0
40 41 42 -11 -12 13 -16 17 18 0
40 41 42 -11 -12 13 -16 17 -18 0
40 41 42 -11 -12 13 -16 -17 18 0
40 41 42 -11 -12 13 -16 -17 -18 0
40 41 42 -11 -12 -13 16 17 18 53 0
40 41 42 -11 -12 -13 16 17 -18 0
40 41 42 -11 -12 -13 16 -17 18 0
40 41 42 -11 -12 -13 16 -17 -18 0
40 41 42 -11 -12 -13 -16 17 18 0
40 41 42 -11 -12 -13 -16 17 -18 0
40 41 42 -11 -12 -13 -16 -17 18 0
40 41 42 -11 -12 -13 -16 -17 -18 0
40 41 -42 11 12 13 16 17 18 0
40 41 -42 11 12 13 16 17 -18 62 0
40 41 -42 11 12 13 16 -17 18 59 0
40 41 -42 11 12 13 16 -17 -18 64 0
40 41 -42 11 12 13 -16 17 18 0
40 41 -42 11 12 13 -16 17 -18 0
40 41 -42 11 12 13 -16 -17 18 0
40 41 -42 11 12 13 -16 -17 -18 0
40 41 -42 11 12 -13 16 17 18 0
40 41 -42 11 12 -13 16 17 -18 64 0
40 41 -42 11 12 -13 16 -17 18 65 0
40 41 -42 11 12 -13 16 -17 -18 0
40 41 -42 11 12 -13 -16 17 18 0
40 41 -42 11 12 -13 -16 17 -18 0
40 41 -42 11 12 -13 -16 -17 18 0
40 41 -42 11 12 -13 -16 -17 -18 0
40 41 -42 11 -12 13 16 17 18 58 0
40 41 -42 11 -12 13 16 17 -18 49 0
40 41 -42 11 -12 13 16 -17 18 0
40 41 -42 11 -12 13 16 -17 -18 0
40 41 -42 11 -12 13 -16 17 18 0
40 41 -42 11 -12 13 -16 17 -18 0
40 41 -42 11 -12 13 -16 -17 18 0
40 41 -42 11 -12 13 -16 -17 -18 0
40 41 -42 11 -12 -13 16 17 18 60 0
40 41 -42 11 -12 -13 16 17 -18 44 0
40 41 -42 11 -12 -13 16 -17 18 51 0
40 41 -42 11 -12 -13 16 -17 -18 0
40 41 -42 11 -12 -13 -16 17 18 0
40 41 -42 11 -12 -13 -16 17 -18 0
40 41 -42 11 -12 -13 -16 -17 18 0
40 41 -42 11 -12 -13 -16 -17 -18 0
40 41 -42 -11 12 13 16 17 18 0
40 41 -42 -11 12 13 16 17 -18 44 0
40 41 -42 -11 12 13 16 -17 18 62 0
40 41 -42 -11 12 13 16 -17 -18 0
40 41 -42 -11 12 13 -16 17 18 0
40 41 -42 -11 12 13 -16 17 -18 0
40 41 -42 -11 12 13 -16 -17 18 0
40 41 -42 -11 12 13 -16 -17 -18 0
40 41 -42 -11 12 -13 16 17 18 55 0
40 41 -42 -11 12 -13 16 17 -18 54 0
40 41 -42 -11 12 -13 16 -17 18 0
40 41 -42 -11 12 -13 16 -17 -18 0
40 41 -42 -11 12 -13 -16 17 18 0
40 41 -42 -11 12 -13 -16 17 -18 0
40 41 -42 -11 12 -13 -16 -17 18 0
40 41 -42 -11 12 -13 -16 -17 -18 0
40 41 -42 -11 -12 13 16 17 18 65 0
40 41 -42 -11 -12 13 16 17 -18 60 0
40 41 -42 -11 -12 13 16 -17 18 0
40 41 -42 -11 -12 13 16 -17 -18 0
40 41 -42 -11 -12 13 -16 17 18 0
40 41 -42 -11 -12 13 -16 17 -18 0
40 41 -42 -11 -12 13 -16 -17 18 0
40 41 -42 -11 -12 13 -16 -17 -18 0
40 41 -42 -11 -12 -13 16 17 18 53 0
40 41 -42 -11 -12 -13 16 17 -18 51 0
40 41 -42 -11 -12 -13 16 -17 18 0
40 41 -42 -11 -12 -13 16 -17 -18 0
40 41 -42 -11 -12 -13 -16 17 18 0
40 41 -42 -11 -12 -13 -16 17 -18 0
40 41 -42 -11 -12 -13 -16 -17 18 0
40 41 -42 -11 -12 -13 -16 -17 -18 0
40 -41 42 11 12 13 16 17 18 0
40 -41 42 11 12 13 16 17 -18 0
40 -41 42 11 12 13 16 -17 18 0
40 -41 42 11 12 13 16 -17 -18 45 0
40 -41 42 11 12 13 -16 17 18 53 0
40 -41 42 11 12 13 -16 17 -18 0
40 -41 42 11 12 13 -16 -17 18 0
40 -41 42 11 12 13 -16 -17 -18 0
40 -41 42 11 12 -13 16 17 18 0
40 -41 42 11 12 -13 16 17 -18 0
40 -41 42 11 12 -13 16 -17 18 52 0
40 -41 42 11 12 -13 16 -17 -18 55 0
40 -41 42 11 12 -13 -16 17 18 0
40 -41 42 11 12 -13 -16 17 -18 0
40 -41 42 11 12 -13 -16 -17 18 0
40 -41 42 11 12 -13 -16 -17 -18 0
40 -41 42 11 -12 13 16 17 18 0
40 -41 42 11 -12 13 16 17 -18 49 0
40 -41 42 11 -12 13 16 -17 18 44 0
40 -41 42 11 -12 13 16 -17 -18 59 0
40 -41 42 11 -12 13 -16 17 18 0
40 -41 42 11 -12 13 -16 17 -18 0
40 -41 42 11 -12 13 -16 -17 18 0
40 -41 42 11 -12 13 -16 -17 -18 0
40 -41 42 11 -12 -13 16 17 18 0
40 -41 42 11 -12 -13 16 17 -18 0
40 -41 42 11 -12 -13 16 -17 18 53 0
40 -41 42 11 -12 -13 16 -17 -18 49 0
40 -41 42 11 -12 -13 -16 17 18 0
40 -41 42 11 -12 -13 -16 17 -18 0
40 -41 42 11 -12 -13 -16 -17 18 0
40 -41 42 11 -12 -13 -16 -17 -18 0
40 -41 42 -11 12 13 16 17 18 0
40 -41 42 -11 12 13 16 17 -18 0
40 -41 42 -11 12 13 16 -17 18 59 0
40 -41 42 -11 12 13 16 -17 -18 0
40 -41 42 -11 12 13 -16 17 18 0
40 -41 42 -11 12 13 -16 17 -18 0
40 -41 42 -11 12 13 -16 -17 18 0
40 -41 42 -11 12 13 -16 -17 -18 0
40 -41 42 -11 12 -13 16 17 18 0
40 -41 42 -11 12 -13 16 17 -18 56 0
40 -41 42 -11 12 -13 16 -17 18 0
40 -41 42 -11 12 -13 16 -17 -18 0
40 -41 42 -11 12 -13 -16 17 18 0
40 -41 42 -11 12 -13 -16 17 -18 0
40 -41 42 -11 12 -13 -16 -17 18 0
40 -41 42 -11 12 -13 -16 -17 -18 0
40 -41 42 -11 -12 13 16 17 18 0
40 -41 42 -11 -12 13 16 17 -18 50 0
40 -41 42 -11 -12 13 16 -17 18 60 0
40 -41 42 -11 -12 13 16 -17 -18 0
40 -41 42 -11 -12 13 -16 17 18 0
40 -41 42 -11 -12 13 -16 17 -18 0
40 -41 42 -11 -12 13 -16 -17 18 0
40 -41 42 -11 -12 13 -16 -17 -18 0
40 -41 42 -11 -12 -13 16 17 18 0
40 -41 42 -11 -12 -13 16 17 -18 53 0
40 -41 42 -11 -12 -13 16 -17 18 46 0
40 -41 42 -11 -12 -13 16 -17 -18 0
40 -41 42 -11 -12 -13 -16 17 18 0
40 -41 42 -11 -12 -13 -16 17 -18 0
40 -41 42 -11 -12 -13 -16 -17 18 0
40 -41 42 -11 -12 -13 -16 -17 -18 0
40 -41 -42 11 12 13 16 17 18 0
40 -41 -42 11 12 13 16 17 -18 0
40 -41 -42 11 12 13 16 -17 18 0
40 -41 -42 11 12 13 16 -17 -18 0
40 -41 -42 11 12 13 -16 17 18 53 0
40 -41 -42 11 12 13 -16 17 -18 46 0
40 -41 -42 11 12 13 -16 -17 18 0
40 -41 -42 11 12 13 -16 -17 -18 0
40 -41 -42 11 12 -13 16 17 18 0
40 -41 -42 11 12 -13 16 17 -18 0
40 -41 -42 11 12 -13 16 -17 18 0
40 -41 -42 11 12 -13 16 -17 -18 51 0
40 -41 -42 11 12 -13 -16 17 18 53 0
40 -41 -42 11 12 -13 -16 17 -18 0
40 -41 -42 11 12 -13 -16 -17 18 0
40 -41 -42 11 12 -13 -16 -17 -18 0
40 -41 -42 11 -12 13 16 17 18 0
40 -41 -42 11 -12 13 16 17 -18 49 0
40 -41 -42 11 -12 13 16 -17 18 0
40 -41 -42 11 -12 13 16 -17 -18 46 0
40 -41 -42 11 -12 13 -16 17 18 53 0
40 -41 -42 11 -12 13 -16 17 -18 0
40 -41 -42 11 -12 13 -16 -17 18 0
40 -41 -42 11 -12 13 -16 -17 -18 0
40 -41 -42 11 -12 -13 16 17 18 0
40 -41 -42 11 -12 -13 16 17 -18 0
40 -41 -42 11 -12 -13 16 -17 18 51 0
40 -41 -42 11 -12 -13 16 -17 -18 55 0
40 -41 -42 11 -12 -13 -16 17 18 59 0
40 -41 -42 11 -12 -13 -16 17 -18 0
40 -41 -42 11 -12 -13 -16 -17 18 0
40 -41 -42 11 -12 -13 -16 -17 -18 0
40 -41 -42 -11 12 13 16 17 18 0
40 -41 -42 -11 12 13 16 17 -18 0
40 -41 -42 -11 12 13 16 -17 18 62 0
40 -41 -42 -11 12 13 16 -17 -18 43 0
40 -41 -42 -11 12 13 -16 17 18 0
40 -41 -42 -11 12 13 -16 17 -18 0
40 -41 -42 -11 12 13 -16 -17 18 0
40 -41 -42 -11 12 13 -16 -17 -18 0
40 -41 -42 -11 12 -13 16 17 18 0
40 -41 -42 -11 12 -13 16 17 -18 0
40 -41 -42 -11 12 -13 16 -17 18 44 0
40 -41 -42 -11 12 -13 16 -17 -18 51 0
40 -41 -42 -11 12 -13 -16 17 18 0
40 -41 -42 -11 12 -13 -16 17 -18 0
40 -41 -42 -11 12 -13 -16 -17 18 0
40 -41 -42 -11 12 -13 -16 -17 -18 0
40 -41 -42 -11 -12 13 16 17 18 0
40 -41 -42 -11 -12 13 16 17 -18 0
40 -41 -42 -11 -12 13 16 -17 18 45 0
40 -41 -42 -11 -12 13 16 -17 -18 0
40 -41 -42 -11 -12 13 -16 17 18 0
40 -41 -42 -11 -12 13 -16 17 -18 0
40 -41 -42 -11 -12 13 -16 -17 18 0
40 -41 -42 -11 -12 13 -16 -17 -18 0
40 -41 -42 -11 -12 -13 16 17 18 0
40 -41 -42 -11 -12 -13 16 17 -18 51 0
40 -41 -42 -11 -12 -13 16 -17 18 59 0
40 -41 -42 -11 -12 -13 16 -17 -18 51 0
40 -41 -42 -11 -12 -13 -16 17 18 0
40 -41 -42 -11 -12 -13 -16 17 -18 0
40 -41 -42 -11 -12 -13 -16 -17 18 0
40 -41 -42 -11 -12 -13 -16 -17 -18 0
-40 41 42 11 12 13 16 17 18 0
-40 41 42 11 12 13 16 17 -18 0
-40 41 42 11 12 13 16 -17 18 0
-40 41 42 11 12 13 16 -17 -18 0
-40 41 42 11 12 13 -16 17 18 0
-40 41 42 11 12 13 -16 17 -18 62 0
-40 41 42 11 12 13 -16 -17 18 46 0
-40 41 42 11 12 13 -16 -17 -18 0
-40 41 42 11 12 -13 16 17 18 0
-40 41 42 11 12 -13 16 17 -18 0
-40 41 42 11 12 -13 16 -17 18 0
-40 41 42 11 12 -13 16 -17 -18 0
-40 41 42 11 12 -13 -16 17 18 53 0
-40 41 42 11 12 -13 -16 17 -18 63 0
-40 41 42 11 12 -13 -16 -17 18 0
-40 41 42 11 12 -13 -16 -17 -18 0
-40 41 42 11 -12 13 16 17 18 0
-40 41 42 11 -12 13 16 17 -18 49 0
-40 41 42 11 -12 13 16 -17 18 0
-40 41 42 11 -12 13 16 -17 -18 0
-40 41 42 11 -12 13 -16 17 18 53 0
-40 41 42 11 -12 13 -16 17 -18 64 0
-40 41 42 11 -12 13 -16 -17 18 0
-40 41 42 11 -12 13 -16 -17 -18 0
-40 41 42 11 -12 -13 16 17 18 0
-40 41 42 11 -12 -13 16 17 -18 0
-40 41 42 11 -12 -13 16 -17 18 0
-40 41 42 11 -12 -13 16 -17 -18 49 0
-40 41 42 11 -12 -13 -16 17 18 46 0
-40 41 42 11 -12 -13 -16 17 -18 46 0
-40 41 42 11 -12 -13 -16 -17 18 0
-40 41 42 11 -12 -13 -16 -17 -18 0
-40 41 42 -11 12 13 16 17 18 0
-40 41 42 -11 12 13 16 17 -18 0
-40 41 42 -11 12 13 16 -17 18 0
-40 41 42 -11 12 13 16 -17 -18 62 0
-40 41 42 -11 12 13 -16 17 18 66 0
-40 41 42 -11 12 13 -16 17 -18 0
-40 41 42 -11 12 13 -16 -17 18 0
-40 41 42 -11 12 13 -16 -17 -18 0
-40 41 42 -11 12 -13 16 17 18 0
-40 41 42 -11 12 -13 16 17 -18 0
-40 41 42 -11 12 -13 16 -17 18 0
-40 41 42 -11 12 -13 16 -17 -18 55 0
-40 41 42 -11 12 -13 -16 17 18 44 0
-40 41 42 -11 12 -13 -16 17 -18 0
-40 41 42 -11 12 -13 -16 -17 18 0
-40 41 42 -11 12 -13 -16 -17 -18 0
-40 41 42 -11 -12 13 16 17 18 0
-40 41 42 -11 -12 13 16 17 -18 0
-40 41 42 -11 -12 13 16 -17 18 60 0
-40 41 42 -11 -12 13 16 -17 -18 44 0
-40 41 42 -11 -12 13 -16 17 18 60 0
-40 41 42 -11 -12 13 -16 17 -18 0
-40 41 42 -11 -12 13 -16 -17 18 0
-40 41 42 -11 -12 13 -16 -17 -18 0
-40 41 42 -11 -12 -13 16 17 18 0
-40 41 42 -11 -12 -13 16 17 -18 0
-40 41 42 -11 -12 -13 16 -17 18 0
-40 41 42 -11 -12 -13 16 -17 -18 53 0
-40 41 42 -11 -12 -13 -16 17 18 0
-40 41 42 -11 -12 -13 -16 17 -18 0
-40 41 42 -11 -12 -13 -16 -17 18 0
-40 41 42 -11 -12 -13 -16 -17 -18 0
-40 41 -42 11 12 13 16 17 18 0
-40 41 -42 11 12 13 16 17 -18 0
-40 41 -42 11 12 13 16 -17 18 0
-40 41 -42 11 12 13 16 -17 -18 0
-40 41 -42 11 12 13 -16 17 18 0
-40 41 -42 11 12 13 -16 17 -18 53 0
-40 41 -42 11 12 13 -16 -17 18 53 0
-40 41 -42 11 12 13 -16 -17 -18 0
-40 41 -42 11 12 -13 16 17 18 0
-40 41 -42 11 12 -13 16 17 -18 0
-40 41 -42 11 12 -13 16 -17 18 0
-40 41 -42 11 12 -13 16 -17 -18 0
-40 41 -42 11 12 -13 -16 17 18 0
-40 41 -42 11 12 -13 -16 17 -18 61 0
-40 41 -42 11 12 -13 -16 -17 18 59 0
-40 41 -42 11 12 -13 -16 -17 -18 0
-40 41 -42 11 -12 13 16 17 18 0
-40 41 -42 11 -12 13 16 17 -18 49 0
-40 41 -42 11 -12 13 16 -17 18 0
-40 41 -42 11 -12 13 16 -17 -18 0
-40 41 -42 11 -12 13 -16 17 18 0
-40 41 -42 11 -12 13 -16 17 -18 45 0
-40 41 -42 11 -12 13 -16 -17 18 62 0
-40 41 -42 11 -12 13 -16 -17 -18 0
-40 41 -42 11 -12 -13 16 17 18 0
-40 41 -42 11 -12 -13 16 17 -18 0
-40 41 -42 11 -12 -13 16 -17 18 0
-40 41 -42 11 -12 -13 16 -17 -18 0
-40 41 -42 11 -12 -13 -16 17 18 0
-40 41 -42 11 -12 -13 -16 17 -18 59 0
-40 41 -42 11 -12 -13 -16 -17 18 0
-40 41 -42 11 -12 -13 -16 -17 -18 0
-40 41 -42 -11 12 13 16 17 18 0
-40 41 -42 -11 12 13 16 17 -18 0
-40 41 -42 -11 12 13 16 -17 18 0
-40 41 -42 -11 12 13 16 -17 -18 0
-40 41 -42 -11 12 13 -16 17 18 57 0
-40 41 -42 -11 12 13 -16 17 -18 0
-40 41 -42 -11 12 13 -16 -17 18 0
-40 41 -42 -11 12 13 -16 -17 -18 0
-40 41 -42 -11 12 -13 16 17 18 0
-40 41 -42 -11 12 -13 16 17 -18 0
-40 41 -42 -11 12 -13 16 -17 18 0
-40 41 -42 -11 12 -13 16 -17 -18 0
-40 41 -42 -11 12 -13 -16 17 18 0
-40 41 -42 -11 12 -13 -16 17 -18 51 0
-40 41 -42 -11 12 -13 -16 -17 18 0
-40 41 -42 -11 12 -13 -16 -17 -18 0
-40 41 -42 -11 -12 13 16 17 18 0
-40 41 -42 -11 -12 13 16 17 -18 0
-40 41 -42 -11 -12 13 16 -17 18 0
-40 41 -42 -11 -12 13 16 -17 -18 0
-40 41 -42 -11 -12 13 -16 17 18 50 0
-40 41 -42 -11 -12 13 -16 17 -18 55 0
-40 41 -42 -11 -12 13 -16 -17 18 0
-40 41 -42 -11 -12 13 -16 -17 -18 0
-40 41 -42 -11 -12 -13 16 17 18 0
-40 41 -42 -11 -12 -13 16 17 -18 0
-40 41 -42 -11 -12 -13 16 -17 18 0
-40 41 -42 -11 -12 -13 16 -17 -18 51 0
-40 41 -42 -11 -12 -13 -16 17 18 44 0
-40 41 -42 -11 -12 -13 -16 17 -18 51 0
-40 41 -42 -11 -12 -13 -16 -17 18 0
-40 41 -42 -11 -12 -13 -16 -17 -18 0
-40 -41 42 11 12 13 16 17 18 0
-40 -41 42 11 12 13 16 17 -18 0
-40 -41 42 11 12 13 16 -17 18 0
-40 -41 42 11 12 13 16 -17 -18 0
-40 -41 42 11 12 13 -16 17 18 0
-40 -41 42 11 12 13 -16 17 -18 0
-40 -41 42 11 12 13 -16 -17 18 62 0
-40 -41 42 11 12 13 -16 -17 -18 44 0
-40 -41 42 11 12 -13 16 17 18 0
-40 -41 42 11 12 -13 16 17 -18 0
-40 -41 42 11 12 -13 16 -17 18 0
-40 -41 42 11 12 -13 16 -17 -18 0
-40 -41 42 11 12 -13 -16 17 18 0
-40 -41 42 11 12 -13 -16 17 -18 0
-40 -41 42 11 12 -13 -16 -17 18 46 0
-40 -41 42 11 12 -13 -16 -17 -18 55 0
-40 -41 42 11 -12 13 16 17 18 0
-40 -41 42 11 -12 13 16 17 -18 49 0
-40 -41 42 11 -12 13 16 -17 18 0
-40 -41 42 11 -12 13 16 -17 -18 0
-40 -41 42 11 -12 13 -16 17 18 0
-40 -41 42 11 -12 13 -16 17 -18 0
-40 -41 42 11 -12 13 -16 -17 18 43 0
-40 -41 42 11 -12 13 -16 -17 -18 51 0
-40 -41 42 11 -12 -13 16 17 18 0
-40 -41 42 11 -12 -13 16 17 -18 0
-40 -41 42 11 -12 -13 16 -17 18 0
-40 -41 42 11 -12 -13 16 -17 -18 0
-40 -41 42 11 -12 -13 -16 17 18 0
-40 -41 42 11 -12 -13 -16 17 -18 0
-40 -41 42 11 -12 -13 -16 -17 18 44 0
-40 -41 42 11 -12 -13 -16 -17 -18 62 0
-40 -41 42 -11 12 13 16 17 18 0
-40 -41 42 -11 12 13 16 17 -18 0
-40 -41 42 -11 12 13 16 -17 18 0
-40 -41 42 -11 12 13 16 -17 -18 0
-40 -41 42 -11 12 13 -16 17 18 0
-40 -41 42 -11 12 13 -16 17 -18 44 0
-40 -41 42 -11 12 13 -16 -17 18 44 0
-40 -41 42 -11 12 13 -16 -17 -18 0
-40 -41 42 -11 12 -13 16 17 18 0
-40 -41 42 -11 12 -13 16 17 -18 0
-40 -41 42 -11 12 -13 16 -17 18 0
-40 -41 42 -11 12 -13 16 -17 -18 0
-40 -41 42 -11 12 -13 -16 17 18 0
-40 -41 42 -11 12 -13 -16 17 -18 55 0
-40 -41 42 -11 12 -13 -16 -17 18 44 0
-40 -41 42 -11 12 -13 -16 -17 -18 0
-40 -41 42 -11 -12 13 16 17 18 0
-40 -41 42 -11 -12 13 16 17 -18 0
-40 -41 42 -11 -12 13 16 -17 18 0
-40 -41 42 -11 -12 13 16 -17 -18 0
-40 -41 42 -11 -12 13 -16 17 18 0
-40 -41 42 -11 -12 13 -16 17 -18 51 0
-40 -41 42 -11 -12 13 -16 -17 18 46 0
-40 -41 42 -11 -12 13 -16 -17 -18 0
-40 -41 42 -11 -12 -13 16 17 18 0
-40 -41 42 -11 -12 -13 16 17 -18 0
-40 -41 42 -11 -12 -13 16 -17 18 0
-40 -41 42 -11 -12 -13 16 -17 -18 0
-40 -41 42 -11 -12 -13 -16 17 18 0
-40 -41 42 -11 -12 -13 -16 17 -18 55 0
-40 -41 42 -11 -12 -13 -16 -17 18 65 0
-40 -41 42 -11 -12 -13 -16 -17 -18 0
-40 -41 -42 11 12 13 16 17 18 0
-40 -41 -42 11 12 13 16 17 -18 0
-40 -41 -42 11 12 13 16 -17 18 0
-40 -41 -42 11 12 13 16 -17 -18 0
-40 -41 -42 11 12 13 -16 17 18 0
-40 -41 -42 11 12 13 -16 17 -18 0
-40 -41 -42 11 12 13 -16 -17 18 0
-40 -41 -42 11 12 13 -16 -17 -18 0
-40 -41 -42 11 12 -13 16 17 18 0
-40 -41 -42 11 12 -13 16 17 -18 0
-40 -41 -42 11 12 -13 16 -17 18 0
-40 -41 -42 11 12 -13 16 -17 -18 0
-40 -41 -42 11 12 -13 -16 17 18 0
-40 -41 -42 11 12 -13 -16 17 -18 0
-40 -41 -42 11 12 -13 -16 -17 18 0
-40 -41 -42 11 12 -13 -16 -17 -18 51 0
-40 -41 -42 11 -12 13 16 17 18 0
-40 -41 -42 11 -12 13 16 17 -18 49 0
-40 -41 -42 11 -12 13 16 -17 18 0
-40 -41 -42 11 -12 13 16 -17 -18 0
-40 -41 -42 11 -12 13 -16 17 18 0
-40 -41 -42 11 -12 13 -16 17 -18 0
-40 -41 -42 11 -12 13 -16 -17 18 0
-40 -41 -42 11 -12 13 -16 -17 -18 55 0
-40 -41 -42 11 -12 -13 16 17 18 0
-40 -41 -42 11 -12 -13 16 17 -18 0
-40 -41 -42 11 -12 -13 16 -17 18 0
-40 -41 -42 11 -12 -13 16 -17 -18 0
-40 -41 -42 11 -12 -13 -16 17 18 0
-40 -41 -42 11 -12 -13 -16 17 -18 0
-40 -41 -42 11 -12 -13 -16 -17 18 0
-40 -41 -42 11 -12 -13 -16 -17 -18 43 0
-40 -41 -42 -11 12 13 16 17 18 0
-40 -41 -42 -11 12 13 16 17 -18 0
-40 -41 -42 -11 12 13 16 -17 18 0
-40 -41 -42 -11 12 13 16 -17 -18 0
-40 -41 -42 -11 12 13 -16 17 18 0
-40 -41 -42 -11 12 13 -16 17 -18 0
-40 -41 -42 -11 12 13 -16 -17 18 0
-40 -41 -42 -11 12 13 -16 -17 -18 44 0
-40 -41 -42 -11 12 -13 16 17 18 0
-40 -41 -42 -11 12 -13 16 17 -18 0
-40 -41 -42 -11 12 -13 16 -17 18 0
-40 -41 -42 -11 12 -13 16 -17 -18 0
-40 -41 -42 -11 12 -13 -16 17 18 0
-40 -41 -42 -11 12 -13 -16 17 -18 0
-40 -41 -42 -11 12 -13 -16 -17 18 0
-40 -41 -42 -11 12 -13 -16 -17 -18 44 0
-40 -41 -42 -11 -12 13 16 17 18 0
-40 -41 -42 -11 -12 13 16 17 -18 0
-40 -41 -42 -11 -12 13 16 -17 18 0
-40 -41 -42 -11 -12 13 16 -17 -18 0
-40 -41 -42 -11 -12 13 -16 17 18 0
-40 -41 -42 -11 -12 13 -16 17 -18 0
-40 -41 -42 -11 -12 13 -16 -17 18 59 0
-40 -41 -42 -11 -12 13 -16 -17 -18 44 0
-40 -41 -42 -11 -12 -13 16 17 18 0
-40 -41 -42 -11 -12 -13 16 17 -18 0
-40 -41 -42 -11 -12 -13 16 -17 18 0
-40 -41 -42 -11 -12 -13 16 -17 -18 0
-40 -41 -42 -11 -12 -13 -16 17 18 0
-40 -41 -42 -11 -12 -13 -16 17 -18 0
-40 -41 -42 -11 -12 -13 -16 -17 18 52 0
-40 -41 -42 -11 -12 -13 -16 -17 -18 44 0
